# Solution for model GasLib-40
# Objective value = 1.0724677815970740e+01
loadshed[innode_1] 0
loadshed[innode_2] 0
loadshed[innode_3] 0
loadshed[innode_4] 0
loadshed[innode_5] 0
loadshed[innode_6] 0
loadshed[innode_7] 0
loadshed[innode_8] 0
loadshed[source_1] -2.6444329156296220e-01
loadshed[source_2] -8.9683397154547650e-02
loadshed[source_3] 4.2196563470903603e-01
loadshed[sink_1] 0
loadshed[sink_2] 0
loadshed[sink_3] 0
loadshed[sink_4] 0
loadshed[sink_5] 0
loadshed[sink_6] 0
loadshed[sink_7] 0
loadshed[sink_8] 0
loadshed[sink_9] 0
loadshed[sink_10] 0
loadshed[sink_11] 0
loadshed[sink_12] 6.5577647791922988e-01
loadshed[sink_13] 0
loadshed[sink_14] 0
loadshed[sink_15] 0
loadshed[sink_16] 0
loadshed[sink_17] 0
loadshed[sink_18] 0
loadshed[sink_19] 0
loadshed[sink_20] 0
loadshed[sink_21] 0
loadshed[sink_22] 0
loadshed[sink_23] 0
loadshed[sink_24] 0
loadshed[sink_25] 0
loadshed[sink_26] 0
loadshed[sink_27] 0
loadshed[sink_28] 0
loadshed[sink_29] 0
flow[source_1,sink_3] 1.9989619119743634e+02
flow[innode_1,sink_16] 1.6354166666666970e+01
flow[innode_6,sink_13] 2.3097553292730051e+01
flow[sink_13,sink_14] 6.7433866260633835e+00
flow[sink_14,sink_10] -9.6107800406032844e+00
flow[sink_25,sink_26] 1.6888629699552260e+02
flow[sink_26,sink_9] 1.2775348513042736e+02
flow[sink_9,sink_18] 1.1139931846376069e+02
flow[sink_26,sink_4] 2.4778645198428563e+01
flow[sink_4,sink_20] 8.4244785317618955e+00
flow[sink_18,sink_6] 9.5045151797094022e+01
flow[sink_25,innode_8] -1.6718785786409995e+02
flow[sink_6,sink_7] 4.5982651797093695e+01
flow[sink_6,sink_22] 3.2708333333333641e+01
flow[sink_7,sink_24] 3.8337822184029264e+01
flow[sink_22,sink_1] 1.6354166666666970e+01
flow[sink_24,sink_21] 2.1983655517362596e+01
flow[sink_21,sink_12] 5.6294888506959282e+00
flow[sink_7,sink_5] -8.7093370536024537e+00
flow[sink_5,sink_17] -2.5063503720269068e+01
flow[sink_17,sink_4] 0
flow[sink_17,sink_8] -41.4176703869358
flow[sink_3,sink_23] 16.3541666666697
flow[sink_8,sink_20] -5.7771837053602468e+01
flow[sink_25,sink_20] 6.5701525188507219e+01
flow[sink_25,sink_15] -1.0685168427932703e+02
flow[sink_15,sink_29] -6.8012816319968223e+01
flow[sink_29,sink_28] 1.6354166666667879e+01
flow[sink_29,sink_2] 7.1547201292692151e+01
flow[sink_2,sink_15] 5.5193034626025479e+01
flow[sink_29,innode_7] -1.7226835094599497e+02
flow[innode_4,sink_19] 9.1381613373949961e+01
flow[sink_19,innode_3] 0
flow[innode_4,innode_5] 0
flow[sink_27,innode_5] 0
flow[sink_27,sink_19] -1.6354166666679703e+01
flow[sink_10,sink_11] 3.2708333333333641e+01
flow[sink_10,innode_2] -5.8673280040603586e+01
flow[sink_10,innode_3] 0
flow[innode_6,sink_25] -2.3097553292730051e+01
flow[sink_11,innode_1] 1.6354166666666970e+01
flow[sink_19,innode_2] 5.8673280040603586e+01
flow[source_3,innode_4] 9.1381613373949961e+01
flow[source_2,innode_7] 1.7226835094599497e+02
flow[sink_3,innode_8] 1.6718785786409995e+02
pressure[innode_1] 7.4058321514210775e+01
pressure[innode_2] 7.7311148000543341e+01
pressure[innode_3] 7.4210022821814320e+01
pressure[innode_4] 81.01325
pressure[innode_5] 81.01325
pressure[innode_6] 7.3894847236952074e+01
pressure[innode_7] 81.01325
pressure[innode_8] 8.0345073395939863e+01
pressure[source_1] 81.01325
pressure[source_2] 81.01325
pressure[source_3] 81.01325
pressure[sink_1] 4.5684083194188673e+01
pressure[sink_2] 7.4593375118026088e+01
pressure[sink_3] 8.0345073395939863e+01
pressure[sink_4] 5.8849863440454619e+01
pressure[sink_5] 5.0776073774931717e+01
pressure[sink_6] 4.7785160804576044e+01
pressure[sink_7] 4.7153928601454815e+01
pressure[sink_8] 5.4205919942044261e+01
pressure[sink_9] 5.4353908713254661e+01
pressure[sink_10] 7.4210022821814320e+01
pressure[sink_11] 7.4058321514210775e+01
pressure[sink_12] 1.0132499999999998e+00
pressure[sink_13] 73.767514285609
pressure[sink_14] 7.3755446420832129e+01
pressure[sink_15] 7.4413182024321017e+01
pressure[sink_16] 73.0366716793931
pressure[sink_17] 5.2643123637883441e+01
pressure[sink_18] 5.0323149344164520e+01
pressure[sink_19] 7.7311148000543341e+01
pressure[sink_20] 5.8231804523677283e+01
pressure[sink_21] 3.0165302362025379e+00
pressure[sink_22] 4.6747852336543680e+01
pressure[sink_23] 8.0180355384280077e+01
pressure[sink_24] 3.25997879580539
pressure[sink_25] 7.3894847236952074e+01
pressure[sink_26] 6.2000284520979470e+01
pressure[sink_27] 7.6960018003399838e+01
pressure[sink_28] 7.6110464199066939e+01
pressure[sink_29] 7.6405746472684115e+01
interdiction[source_1,sink_3] 0
interdiction[innode_1,sink_16] 0
interdiction[innode_6,sink_13] 0
interdiction[sink_13,sink_14] 0
interdiction[sink_14,sink_10] 0
interdiction[sink_25,sink_26] 0
interdiction[sink_26,sink_9] 0
interdiction[sink_9,sink_18] 0
interdiction[sink_26,sink_4] 0
interdiction[sink_4,sink_20] 0
interdiction[sink_18,sink_6] 0
interdiction[sink_25,innode_8] 0
interdiction[sink_6,sink_7] 0
interdiction[sink_6,sink_22] 0
interdiction[sink_7,sink_24] 0
interdiction[sink_22,sink_1] 0
interdiction[sink_24,sink_21] 0
interdiction[sink_21,sink_12] 0
interdiction[sink_7,sink_5] 0
interdiction[sink_5,sink_17] 0
interdiction[sink_17,sink_4] 1
interdiction[sink_17,sink_8] 0
interdiction[sink_3,sink_23] 0
interdiction[sink_8,sink_20] 0
interdiction[sink_25,sink_20] 0
interdiction[sink_25,sink_15] 0
interdiction[sink_15,sink_29] 0
interdiction[sink_29,sink_28] 0
interdiction[sink_29,sink_2] 0
interdiction[sink_2,sink_15] 0
interdiction[sink_29,innode_7] 0
interdiction[innode_4,sink_19] 0
interdiction[sink_19,innode_3] 1
interdiction[innode_4,innode_5] 0
interdiction[sink_27,innode_5] 1
interdiction[sink_27,sink_19] 0
interdiction[sink_10,sink_11] 0
interdiction[sink_10,innode_2] 0
interdiction[sink_10,innode_3] 0
interdiction[innode_6,sink_25] 0
interdiction[sink_11,innode_1] 0
interdiction[sink_19,innode_2] 0
interdiction[source_3,innode_4] 0
interdiction[source_2,innode_7] 0
interdiction[sink_3,innode_8] 0
WCcheckFlow[source_1,sink_3] 39
WCcheckFlow[innode_1,sink_16] 1
WCcheckFlow[innode_6,sink_13] 13
WCcheckFlow[sink_13,sink_14] 12
WCcheckFlow[sink_14,sink_10] 11
WCcheckFlow[sink_25,sink_26] 15
WCcheckFlow[sink_26,sink_9] 12
WCcheckFlow[sink_9,sink_18] 11
WCcheckFlow[sink_26,sink_4] 2
WCcheckFlow[sink_4,sink_20] 1
WCcheckFlow[sink_18,sink_6] 10
WCcheckFlow[sink_25,innode_8] -36
WCcheckFlow[sink_6,sink_7] 7
WCcheckFlow[sink_6,sink_22] 2
WCcheckFlow[sink_7,sink_24] 3
WCcheckFlow[sink_22,sink_1] 1
WCcheckFlow[sink_24,sink_21] 2
WCcheckFlow[sink_21,sink_12] 1
WCcheckFlow[sink_7,sink_5] 3
WCcheckFlow[sink_5,sink_17] 2
WCcheckFlow[sink_17,sink_4] 0
WCcheckFlow[sink_17,sink_8] 1
WCcheckFlow[sink_3,sink_23] 1
WCcheckFlow[sink_8,sink_20] 0
WCcheckFlow[sink_25,sink_20] 0
WCcheckFlow[sink_25,sink_15] 6
WCcheckFlow[sink_15,sink_29] 5
WCcheckFlow[sink_29,sink_28] 1
WCcheckFlow[sink_29,sink_2] 1
WCcheckFlow[sink_2,sink_15] 0
WCcheckFlow[sink_29,innode_7] 2
WCcheckFlow[innode_4,sink_19] -3
WCcheckFlow[sink_19,innode_3] 0
WCcheckFlow[innode_4,innode_5] 1
WCcheckFlow[sink_27,innode_5] 0
WCcheckFlow[sink_27,sink_19] -1
WCcheckFlow[sink_10,sink_11] 3
WCcheckFlow[sink_10,innode_2] 6
WCcheckFlow[sink_10,innode_3] 1
WCcheckFlow[innode_6,sink_25] -14
WCcheckFlow[sink_11,innode_1] 2
WCcheckFlow[sink_19,innode_2] -5
WCcheckFlow[source_3,innode_4] -1
WCcheckFlow[source_2,innode_7] -1
WCcheckFlow[sink_3,innode_8] 37
